SystemName NH2-CH2-CN+H2O reaction         # Descriptive name of the system
SystemLabel            NH2-CH2-CN          # Short name for naming files

# Species and atoms

NumberOfSpecies       4
NumberOfAtoms         10
%block ChemicalSpeciesLabel
  1   6   C
  2   1   H
  3   7   N
  4   8   O
%endblock ChemicalSpeciesLabel

# Basis

%block PAO.BasisSizes
    C DZP
    N DZP
    O DZP
    H SZP
%endblock PAO.BasisSizes

LatticeConstant       1.0000 Ang
%block LatticeVectors
15.00000   0.000000  0.000000
 0.00000  15.000000  0.000000
 0.00000   0.000000 15.000000
%endblock LatticeVectors

%block kgrid_Monkhorst_Pack
   1  0  0  0.
   0  1  0  0.
   0  0  1  0.
%endblock Kgrid_Monkhorst_Pack

xc.functional         GGA           # Exchange-correlation functional
xc.authors            PBE           # Exchange-correlation version

#SpinPolarized         true          # Logical parameters are: yes or no

MeshCutoff           200. Ry        # Mesh cutoff. real space mesh

# SCF options
#SCFMustConvergence     true
MaxSCFIterations       150          # Maximum number of SCF iter
DM.MixingWeight       0.02          # New DM amount for next SCF cycle
DM.Tolerance          3.d-4         # Tolerance in maximum difference
                                    # between input and output DM
DM.NumberPulay          6           # to use continuation files
#DM.NumberBroyden       3
#DM.AllowExtrapolation  false

MD.UseSaveData           true

Diag.DivideAndConquer 	true
SolutionMethod        diagon        # OrderN or Diagon
ElectronicTemperature  25 meV       # Temp. for Fermi smearing

# -----------------------------
#  MD options
#  options for a basic MD run
# -----------------------------

# Options to Integrate Equations of motion

MD.TypeOfRun         verlet         # Standard Verlet algrithm
                                    # for Molecular Dynamics

MD.LengthTimeStep         0.5 fs    # time step integration
                                    # Newton eqs of motion

MD.Initial.Time.Step     1          #initial time step of MD

MD.FinalTimeStep         50         #Final time step of MD

# Initial Atomic coordinates and Velocity for MD run

MD.InitialTemperature     0 K       #Assign initial random velocity from
                                    # a Maxwell-Boltzmann distribution
                                    # for a given temperature

MD.UseSaveXV 		true            # use atomic Positions
                                    # and Velocities from
                                    # a saved XV file

AtomicCoordinatesFormat Ang         #Use Angstroms for atomic coordinates
%block AtomicCoordinatesAndAtomicSpecies
            0.0000    0.0000    0.0000 1 ! C 1
            0.0000    1.4100    0.0000 2 ! H 2
            0.0000   -1.4100    0.0000 2 ! H 3
            3.0000    0.0000    0.0000 3 ! N 4
            3.0000    1.0890    0.0000 2 ! H 5
            3.0000   -1.0890    0.0000 2 ! H 6
           -3.0000    0.0000    0.0000 1 ! C 7
           -4.0000   -1.0000    0.0000 4 ! O 8
           -4.0950   -1.0000    0.0000 2 ! H 9
           -3.0000    1.0000    0.0000 4 ! O 10


%endblock AtomicCoordinatesAndAtomicSpecies

#MD Output

WriteCoorXmol          true         #Save the final coordinates in .xyz format

WriteMDXmol            true         #Writes the coordinates
                                    #of all atoms at all steps
                                    #in a .ANI file
                                    #in xyz format

WriteMDhistory         true         #writes .MDE and .MD files
                                    # with output data from MD simulation
                                    # MDE contains: Temp, energy, volume, pressure
                                    # (human readable)
                                    # MD contains coords vel lattice vectors
                                    # (unformatted; post-process with iomd.f)
